251 251
559 559
560 489
606 489
652 489
699 489
699 443
699 397
699 351
652 351
606 351
559 350
559 300
559 251
515 251
471 251
427 251
383 251
339 251
295 251
226 199
269 199
311 199
353 199
396 199
438 199
480 199
523 199
565 199
607 199
651 200
651 249
651 299
700 299
750 299
801 300
801 340
801 380
801 420
801 460
801 500
801 540
801 580
801 620
801 660
801 700
801 740
801 780
150 150
510 510
595 595
631 631
667 667
703 703
739 739
825 825
